c Random generated cnf formula, satisfiable: false
p cnf 10 50
5 2 -7 0
9 6 4 0
3 1 2 0
1 10 -6 0
-8 -6 -2 0
-8 -2 7 0
7 10 -4 0
-9 -3 -10 0
-10 3 7 0
-4 -2 10 0
3 -8 1 0
-1 -2 4 0
8 4 3 0
3 2 -8 0
5 -1 9 0
-7 9 -3 0
-10 3 -8 0
8 -9 4 0
9 10 -2 0
1 -6 -7 0
2 3 -9 0
-10 2 -8 0
7 8 -2 0
-9 -6 -8 0
7 -6 9 0
6 7 -2 0
3 -4 7 0
-4 2 7 0
2 4 -10 0
7 -6 -8 0
-6 -9 -1 0
-5 -4 -7 0
-6 -7 -9 0
-8 4 5 0
5 -4 7 0
1 -6 8 0
9 7 3 0
-2 6 -5 0
-7 5 -4 0
2 -3 -7 0
6 -4 -3 0
-5 -2 -10 0
-5 3 -6 0
8 -6 -9 0
10 8 -7 0
-1 4 6 0
10 -7 -1 0
6 7 8 0
10 6 -3 0
3 -7 5 0
